39 2000
5 181
7 177
9 150
2 192
7 150
2 177
8 140
3 115
5 128
7 100
10 102
10 172
4 117
9 188
5 117
11 100
7 133
3 128
3 192
5 140
6 114
6 177
5 100
2 177
2 172
7 188
6 151
6 100
11 181
2 114
7 157
10 151
7 20
11 133
11 159
5 102
8 159
5 157
11 115
